c turning on binary mode checking
c parsing input formula with 259840 variables and 1039934 clauses
c finished parsing, read 23413655 bytes from proof file
c detected empty clause; start verification via backward checking
c 20823 of 1039934 clauses in core                            
c 26289 of 604855 lemmas in core using 192006 resolution steps
c 0 RAT lemmas in core; 1583 redundant literals in core lemmas
s VERIFIED
c verification time: 3.140 seconds
